55
3 43 12 59 
2 1 9 
2 21 73 
3 54 64 67 
2 15 78 
4 92 31 22 89 
2 84 17 
2 6 69 
3 72 3 35 
2 13 102 
3 74 56 109 
3 118 38 8 
2 82 53 
3 71 18 77 
3 57 114 110 
2 108 117 
2 46 60 
3 30 85 120 
4 86 27 100 101 
2 44 104 
2 45 80 
2 111 25 
3 66 29 112 
2 79 116 
3 33 16 10 
2 23 65 
2 70 4 
2 98 115 
2 19 11 
2 39 20 
2 83 91 
3 113 62 90 
2 2 87 
3 49 95 26 
1 47 
2 14 41 
2 61 48 
3 51 96 81 
2 50 37 
2 103 36 
2 5 28 
2 106 7 
2 40 88 
1 75 
2 76 107 
1 52 
2 55 24 
2 42 63 
1 105 
2 32 34 
1 58 
2 97 68 
2 99 93 
1 119 
1 94 
